245,89
387,257
342,652
464,833
552,805
635,702
871,780
681,466
663,463
1137,258
838,-79
782,93
769,285
858,434
635,548
663,463
699,463
468,298
533,-50
387,257
296,467
635,548
972,617
858,434
633,441
769,285
542,-21
622,397
300,787
635,702
762,566
1184,485
1041,766
926,887
552,805
464,833
406,681
622,397
